min: 1 x1 + 1 x2 + 1 x3 + 1 x4 + 1 x5 + 1 x6 + 1 x7 + 1 x8 + 1 x9 + 1 x10 + 1 x11 + 1 x12 + 1 x13 + 1 x14 + 1 x15 + 1 x16 + 1 x17 + 1 x18 + 1 x19 + 1 x20 + 1 x21 + 1 x22 + 1 x23 + 1 x24 + 1 x25 + 1 x26 + 1 x27 + 1 x28 + 1 x29 + 1 x30 + 1 x31 + 1 x32 + 1 x33 + 1 x34 + 1 x35 + 1 x36 + 1 x37 + 1 x38 + 1 x39 + 1 x40 + 1 x41 + 1 x42 + 1 x43 + 1 x44 + 1 x45 + 1 x46 + 1 x47 + 1 x48 + 1 x49 + 1 x50 + 1 x51 + 1 x52 + 1 x53 + 1 x54 + 1 x55 + 1 x56 + 1 x57 + 1 x58 + 1 x59 + 1 x60 + 1 x61 + 1 x62 + 1 x63 + 1 x64 + 1 x65 + 1 x66 + 1 x67 + 1 x68 + 1 x69 + 1 x70 + 1 x71 + 1 x72 + 1 x73 + 1 x74 + 1 x75 + 1 x76 + 1 x77 + 1 x78 + 1 x79 + 1 x80 + 1 x81 + 1 x82 + 1 x83 + 1 x84 + 1 x85 + 1 x86 + 1 x87 + 1 x88 + 1 x89 + 1 x90 + 1 x91 + 1 x92 + 1 x93 + 1 x94 + 1 x95 + 1 x96 + 1 x97 + 1 x98 + 1 x99 + 1 x100 + 1 x101 + 1 x102 + 1 x103 + 1 x104 + 1 x105 + 1 x106 + 1 x107 + 1 x108 + 1 x109 + 1 x110 + 1 x111 + 1 x112 + 1 x113 + 1 x114 + 1 x115 + 1 x116 + 1 x117 + 1 x118 + 1 x119 + 1 x120 + 1 x121 + 1 x122 + 1 x123 + 1 x124 + 1 x125 + 1 x126 + 1 x127 + 1 x128 + 1 x129 + 1 x130 + 1 x131 + 1 x132 + 1 x133 + 1 x134 + 1 x135 + 1 x136 + 1 x137 + 1 x138 + 1 x139 + 1 x140 + 1 x141 + 1 x142 + 1 x143 + 1 x144 + 1 x145 + 1 x146 + 1 x147 + 1 x148 + 1 x149 + 1 x150 + 1 x151 + 1 x152 + 1 x153 + 1 x154 + 1 x155 + 1 x156 + 1 x157 + 1 x158 + 1 x159 + 1 x160 + 1 x161 + 1 x162 + 1 x163 + 1 x164 + 1 x165 + 1 x166 + 1 x167 + 1 x168 + 1 x169 + 1 x170 + 1 x171 + 1 x172 + 1 x173 + 1 x174 + 1 x175 + 1 x176 + 1 x177 + 1 x178 + 1 x179 + 1 x180 + 1 x181 + 1 x182 + 1 x183 + 1 x184 + 1 x185 + 1 x186 + 1 x187 + 1 x188 + 1 x189 + 1 x190 + 1 x191 + 1 x192 + 1 x193 + 1 x194 + 1 x195 + 1 x196 + 1 x197 + 1 x198 + 1 x199 + 1 x200;

r1: x63 + x71 + x9 + x94 + x112 + x77 + x60 >= 1;
r2: x157 + x98 + x190 >= 1;
r3: x44 + x123 + x199 + x198 + x30 + x58 >= 1;
r4: x50 + x164 + x1 + x106 + x94 + x28 >= 1;
r5: x99 + x63 + x83 + x185 + x118 + x61 + x50 >= 1;
r6: x118 + x167 + x112 + x123 + x7 >= 1;
r7: x58 + x181 + x85 + x155 + x194 + x50 >= 1;
r8: x17 + x183 + x51 + x36 + x96 >= 1;
r9: x73 + x94 >= 1;
r10: x1 + x107 + x101 + x130 + x171 + x23 >= 1;
r11: x136 + x93 + x199 + x116 + x33 >= 1;
r12: x28 >= 1;
r13: x194 + x184 + x149 + x3 + x64 + x114 + x138 >= 1;
r14: x167 + x140 + x49 + x89 + x11 + x190 + x28 >= 1;
r15: x64 >= 1;
r16: x129 + x147 + x33 + x127 + x58 + x133 + x81 >= 1;
r17: x11 + x133 >= 1;
r18: x119 + x55 + x111 >= 1;
r19: x113 + x127 + x18 + x32 + x145 + x46 + x5 >= 1;
r20: x51 + x195 >= 1;
r21: x9 >= 1;
r22: x96 + x37 + x175 + x150 + x113 + x174 + x179 >= 1;
r23: x49 + x37 + x171 >= 1;
r24: x131 + x84 + x165 + x48 + x107 >= 1;
r25: x172 + x6 >= 1;
r26: x28 + x165 + x13 >= 1;
r27: x34 >= 1;
r28: x97 + x32 + x5 + x77 + x180 >= 1;
r29: x92 + x165 + x177 + x151 + x128 >= 1;
r30: x158 + x149 + x58 + x51 >= 1;
r31: x181 + x83 >= 1;
r32: x52 + x179 + x31 + x59 + x40 + x106 + x130 >= 1;
r33: x67 + x165 + x180 >= 1;
r34: x7 + x192 + x34 + x112 + x120 + x178 + x35 + x125 >= 1;
r35: x116 + x14 + x162 + x185 + x33 + x136 >= 1;
r36: x156 + x17 + x99 + x26 + x20 >= 1;
r37: x79 + x4 + x152 + x60 + x183 + x50 + x172 + x36 >= 1;
r38: x163 + x78 + x44 + x22 >= 1;
r39: x65 + x56 + x166 + x194 + x78 + x12 >= 1;
r40: x39 + x83 >= 1;
r41: x97 + x190 + x28 + x20 + x5 + x18 + x7 + x173 >= 1;
r42: x53 + x71 + x7 + x46 + x182 + x43 + x139 >= 1;
r43: x16 >= 1;
r44: x134 + x164 + x83 + x187 + x168 + x93 + x55 >= 1;
r45: x75 + x94 + x101 + x50 + x193 + x27 + x52 + x127 >= 1;
r46: x50 + x31 >= 1;
r47: x24 >= 1;
r48: x199 + x159 + x155 >= 1;
r49: x10 + x68 + x6 + x24 + x184 + x171 + x167 + x172 >= 1;
r50: x151 + x178 + x192 >= 1;
r51: x185 + x158 + x64 + x170 + x132 >= 1;
r52: x116 + x121 + x146 + x155 + x71 >= 1;
r53: x68 + x106 + x71 >= 1;
r54: x196 + x91 + x8 >= 1;
r55: x54 + x28 >= 1;
r56: x161 + x105 + x182 + x129 + x147 + x92 >= 1;
r57: x64 + x100 + x15 + x43 + x152 + x128 >= 1;
r58: x86 + x79 >= 1;
r59: x18 + x72 + x63 + x99 >= 1;
r60: x156 >= 1;
r61: x156 + x54 + x194 + x29 + x27 >= 1;
r62: x43 >= 1;
r63: x91 + x36 + x28 + x164 >= 1;
r64: x119 + x14 + x106 >= 1;
r65: x145 + x47 + x16 + x1 + x164 + x46 + x169 + x23 >= 1;
r66: x42 + x72 + x196 + x49 + x29 + x101 + x35 >= 1;
r67: x94 + x144 >= 1;
r68: x197 + x83 + x174 + x155 + x170 + x195 + x76 >= 1;
r69: x117 >= 1;
r70: x89 + x75 + x112 >= 1;
r71: x77 + x166 + x116 >= 1;
r72: x112 >= 1;
r73: x161 + x9 + x19 + x82 + x175 + x136 >= 1;
r74: x14 + x16 + x135 + x95 + x166 + x79 + x139 >= 1;
r75: x49 + x140 + x33 + x129 + x126 + x169 >= 1;
r76: x117 + x78 + x152 + x180 + x145 + x22 + x113 >= 1;
r77: x48 + x2 + x198 + x104 >= 1;
r78: x54 + x106 + x17 + x89 + x88 + x130 + x197 >= 1;
r79: x57 + x144 + x70 >= 1;
r80: x40 >= 1;
r81: x174 + x35 + x67 + x96 + x145 >= 1;
r82: x54 + x58 + x128 + x99 + x165 + x107 + x19 + x78 >= 1;
r83: x76 + x195 + x10 >= 1;
r84: x35 + x107 + x186 + x139 + x196 >= 1;
r85: x28 + x53 + x80 + x76 + x74 + x55 + x70 + x60 >= 1;
r86: x146 + x151 >= 1;
r87: x139 + x117 + x152 + x188 + x91 + x44 + x187 >= 1;
r88: x97 + x108 + x50 >= 1;
r89: x178 + x166 >= 1;
r90: x161 + x63 + x79 + x149 + x186 + x158 >= 1;
r91: x127 + x66 + x49 + x92 + x82 + x1 + x89 >= 1;
r92: x185 + x186 + x62 + x131 + x166 >= 1;
r93: x6 + x136 + x185 + x179 + x116 + x76 + x86 + x164 >= 1;
r94: x100 + x18 + x63 >= 1;
r95: x76 + x181 + x143 >= 1;
r96: x72 + x159 + x194 >= 1;
r97: x199 + x40 >= 1;
r98: x74 + x7 + x39 + x106 >= 1;
r99: x1 + x167 + x110 + x151 + x173 + x91 + x111 + x128 >= 1;
r100: x124 + x196 + x174 + x162 + x116 + x168 + x58 >= 1;
r101: x35 + x17 + x133 + x199 + x40 + x8 + x168 + x107 >= 1;
r102: x125 + x137 + x66 + x87 + x17 + x122 + x170 >= 1;
r103: x144 + x127 + x70 + x61 + x122 + x186 >= 1;
r104: x99 + x133 + x2 + x65 + x4 >= 1;
r105: x23 + x9 >= 1;
r106: x148 + x103 + x29 >= 1;
r107: x76 + x58 + x165 + x41 + x176 >= 1;
r108: x191 + x71 + x106 + x143 >= 1;
r109: x184 + x98 + x133 + x121 + x164 + x152 + x1 + x13 >= 1;
r110: x163 + x4 + x175 >= 1;
r111: x145 >= 1;
r112: x88 >= 1;
r113: x52 + x61 + x26 + x11 + x123 + x4 + x23 + x84 >= 1;
r114: x190 + x170 >= 1;
r115: x161 + x27 + x130 + x77 + x155 + x39 >= 1;
r116: x172 + x12 + x26 + x25 + x68 >= 1;
r117: x12 + x26 + x90 + x21 + x13 + x165 + x153 >= 1;
r118: x85 + x124 + x152 + x73 + x155 + x25 + x39 >= 1;
r119: x134 + x96 + x195 + x76 + x160 + x132 + x98 >= 1;
r120: x85 + x17 + x138 + x90 + x119 + x97 + x29 + x72 >= 1;
r121: x172 + x129 + x32 >= 1;
r122: x136 + x182 + x130 + x9 + x14 + x37 + x167 + x179 >= 1;
r123: x175 + x55 + x166 + x47 + x50 + x77 + x140 >= 1;
r124: x12 + x187 + x146 + x26 + x80 + x38 >= 1;
r125: x30 + x27 >= 1;
r126: x34 + x194 >= 1;
r127: x98 + x153 + x12 + x74 >= 1;
r128: x141 + x43 + x158 + x149 + x88 + x98 + x65 + x51 >= 1;
r129: x154 + x174 + x31 + x127 + x9 + x92 >= 1;
r130: x150 + x26 + x103 + x155 + x95 + x60 + x18 + x98 >= 1;
r131: x14 + x143 + x25 + x158 + x75 + x64 >= 1;
r132: x118 + x188 + x122 + x41 >= 1;
r133: x76 + x34 + x66 + x103 + x42 + x141 + x45 >= 1;
r134: x83 + x25 + x151 + x114 + x165 + x128 + x197 >= 1;
r135: x19 + x172 + x44 >= 1;
r136: x74 + x82 + x6 + x196 + x69 + x147 + x79 + x121 >= 1;
r137: x43 + x163 + x160 + x74 + x19 + x100 + x120 >= 1;
r138: x129 + x13 + x133 + x112 + x143 + x73 + x52 + x136 >= 1;
r139: x157 + x104 + x52 >= 1;
r140: x48 + x121 + x18 + x155 + x84 + x77 >= 1;
r141: x93 + x55 + x143 + x194 + x84 + x193 >= 1;
r142: x41 >= 1;
r143: x11 + x51 >= 1;
r144: x69 + x58 + x200 + x84 + x153 + x95 + x121 >= 1;
r145: x200 + x172 + x73 + x84 >= 1;
r146: x136 + x138 >= 1;
r147: x194 + x49 + x60 + x169 + x80 >= 1;
r148: x131 + x117 + x100 >= 1;
r149: x106 + x14 >= 1;
r150: x31 + x135 + x69 + x17 + x188 + x184 + x37 >= 1;
r151: x23 + x144 >= 1;
r152: x1 + x19 + x138 + x60 + x72 + x73 + x26 + x29 >= 1;
r153: x197 + x102 >= 1;
r154: x182 + x84 + x141 + x146 + x69 >= 1;
r155: x109 + x93 + x39 + x43 + x114 + x183 + x45 >= 1;
r156: x159 + x192 + x19 >= 1;
r157: x188 + x93 + x136 + x61 + x14 + x97 >= 1;
r158: x176 + x45 + x102 + x46 + x28 + x190 + x105 >= 1;
r159: x20 + x33 >= 1;
r160: x172 + x166 + x152 + x154 + x55 + x24 + x92 >= 1;
r161: x162 + x5 + x66 + x161 >= 1;
r162: x113 + x65 >= 1;
r163: x12 >= 1;
r164: x126 + x70 + x162 + x51 + x92 + x178 + x53 >= 1;
r165: x85 + x4 + x124 + x122 + x30 + x67 + x99 + x53 >= 1;
r166: x31 + x119 + x53 + x16 + x190 >= 1;
r167: x143 + x125 + x187 + x54 + x167 + x194 >= 1;
r168: x200 + x69 + x120 + x119 + x170 + x90 + x1 + x182 >= 1;
r169: x93 + x166 + x193 + x46 + x87 + x199 >= 1;
r170: x165 + x146 + x110 + x106 + x52 >= 1;
r171: x162 + x42 + x98 + x71 >= 1;
r172: x71 + x188 + x117 + x94 + x124 + x146 + x139 + x97 >= 1;
r173: x191 >= 1;
r174: x16 + x117 + x58 + x102 + x116 + x5 >= 1;
r175: x114 + x161 + x124 + x80 + x125 >= 1;
r176: x130 + x117 >= 1;
r177: x45 + x5 + x56 + x137 + x73 >= 1;
r178: x157 + x88 + x29 + x132 + x70 >= 1;
r179: x200 + x76 >= 1;
r180: x117 + x71 + x161 >= 1;
r181: x183 + x98 >= 1;
r182: x95 + x135 + x73 + x134 + x142 + x197 + x87 >= 1;
r183: x54 + x16 + x58 + x191 + x52 + x112 + x169 >= 1;
r184: x195 + x153 + x56 + x192 >= 1;
r185: x175 + x79 + x101 + x110 + x152 + x46 + x89 + x55 >= 1;
r186: x178 + x39 + x177 + x170 + x162 + x152 >= 1;
r187: x192 + x179 + x85 + x106 + x197 >= 1;
r188: x190 + x136 + x74 + x133 + x38 + x109 + x148 + x125 >= 1;
r189: x47 + x48 >= 1;
r190: x73 + x35 + x197 + x165 + x2 + x42 >= 1;
r191: x160 + x3 + x179 + x1 + x145 + x126 + x118 >= 1;
r192: x189 + x39 + x146 + x109 + x45 >= 1;
r193: x104 >= 1;
r194: x117 + x83 + x97 + x112 + x6 >= 1;
r195: x188 >= 1;
r196: x19 + x144 >= 1;
r197: x108 + x22 + x76 >= 1;
r198: x63 + x85 >= 1;
r199: x159 + x87 + x182 + x126 + x189 + x190 >= 1;
r200: x138 + x38 + x182 + x15 >= 1;
r201: x175 + x21 + x74 + x160 + x188 + x18 + x119 >= 1;
r202: x145 + x51 + x153 + x125 >= 1;
r203: x53 >= 1;
r204: x13 + x83 + x194 + x97 + x200 >= 1;
r205: x36 + x191 + x101 + x63 >= 1;
r206: x76 + x161 + x124 + x32 + x154 >= 1;
r207: x85 >= 1;
r208: x72 + x133 >= 1;
r209: x142 + x32 + x60 + x187 + x144 + x106 + x194 >= 1;
r210: x131 + x143 + x1 + x180 + x102 >= 1;
r211: x120 + x152 + x163 + x22 + x126 + x56 >= 1;
r212: x149 + x40 + x145 + x71 + x52 + x89 + x148 >= 1;
r213: x59 + x79 + x111 + x89 + x200 >= 1;
r214: x102 >= 1;
r215: x185 + x74 + x73 >= 1;
r216: x92 >= 1;
r217: x31 + x53 + x35 + x61 >= 1;
r218: x38 + x54 >= 1;
r219: x136 + x72 + x131 + x101 + x166 >= 1;
r220: x79 + x190 + x185 + x184 + x196 + x8 >= 1;
r221: x111 + x165 + x48 + x167 + x101 >= 1;
r222: x169 + x39 + x79 + x27 >= 1;
r223: x71 + x59 + x12 + x60 + x110 + x102 + x104 >= 1;
r224: x83 + x31 >= 1;
r225: x98 + x198 + x6 + x173 + x130 + x200 + x25 + x140 >= 1;
r226: x136 + x165 + x160 + x149 >= 1;
r227: x14 + x41 + x22 + x117 + x162 + x189 + x95 + x33 >= 1;
r228: x162 + x70 + x64 + x23 + x52 + x71 >= 1;
r229: x41 + x124 + x49 + x99 + x4 + x2 + x14 + x1 >= 1;
r230: x77 >= 1;
r231: x54 + x187 + x23 + x39 + x96 + x111 + x58 + x13 >= 1;
r232: x104 + x10 + x183 >= 1;
r233: x30 + x24 + x186 + x73 + x2 + x29 + x60 >= 1;
r234: x144 + x132 + x195 + x143 + x83 >= 1;
r235: x157 + x112 + x37 >= 1;
r236: x165 + x63 + x151 + x69 + x48 + x31 + x130 >= 1;
r237: x55 >= 1;
r238: x101 + x156 + x132 + x160 >= 1;
r239: x135 + x188 + x190 + x114 + x44 >= 1;
r240: x176 + x46 + x33 >= 1;
r241: x132 + x135 + x131 + x188 >= 1;
r242: x145 + x154 + x56 >= 1;
r243: x125 + x13 >= 1;
r244: x175 + x91 + x109 >= 1;
r245: x167 + x190 + x43 + x81 + x154 + x195 + x106 >= 1;
r246: x55 + x85 + x44 + x6 + x34 + x180 + x109 + x176 >= 1;
r247: x75 + x36 + x96 + x12 + x199 + x90 + x124 >= 1;
r248: x36 + x152 + x78 + x189 + x98 + x64 + x71 >= 1;
r249: x178 + x116 + x185 + x189 >= 1;
r250: x92 + x8 + x118 + x179 + x63 + x2 + x20 + x84 >= 1;
r251: x120 + x12 + x146 + x198 + x122 + x114 + x92 + x99 >= 1;
r252: x160 + x21 + x177 + x4 + x35 + x181 >= 1;
r253: x24 + x96 + x73 + x109 + x129 + x112 >= 1;
r254: x53 + x171 + x77 + x137 + x140 + x164 + x106 + x57 >= 1;
r255: x115 + x106 >= 1;
r256: x17 + x85 + x184 >= 1;
r257: x170 + x105 + x93 + x152 >= 1;
r258: x177 + x167 + x21 >= 1;
r259: x31 >= 1;
r260: x1 + x108 + x42 + x136 + x140 >= 1;
r261: x137 + x104 + x192 + x37 + x162 + x111 >= 1;
r262: x88 + x89 + x108 + x98 + x149 >= 1;
r263: x159 + x195 + x124 + x176 + x7 + x27 >= 1;
r264: x130 + x152 + x115 + x107 + x34 >= 1;
r265: x155 + x196 + x21 + x137 + x24 + x122 + x123 + x104 >= 1;
r266: x124 + x87 + x195 + x96 + x92 + x72 >= 1;
r267: x183 + x163 + x173 + x47 >= 1;
r268: x36 >= 1;
r269: x43 + x55 >= 1;
r270: x81 + x191 + x124 + x159 + x128 + x176 + x12 >= 1;
r271: x140 + x112 >= 1;
r272: x14 + x97 + x169 >= 1;
r273: x49 + x37 >= 1;
r274: x120 + x172 + x190 + x68 + x192 >= 1;
r275: x154 + x32 + x113 >= 1;
r276: x134 >= 1;
r277: x30 + x194 >= 1;
r278: x71 + x53 + x33 + x69 + x48 + x156 >= 1;
r279: x154 + x168 + x21 + x19 >= 1;
r280: x59 + x138 >= 1;
r281: x173 + x104 + x160 + x64 + x6 + x188 + x84 >= 1;
r282: x119 + x39 + x4 >= 1;
r283: x161 + x87 + x117 + x143 >= 1;
r284: x67 + x79 >= 1;
r285: x29 + x66 + x64 + x183 + x18 + x78 + x42 + x8 >= 1;
r286: x59 + x43 + x38 + x60 + x173 + x17 + x166 >= 1;
r287: x145 + x22 + x14 + x60 + x175 >= 1;
r288: x166 + x50 + x150 >= 1;
r289: x64 + x164 + x116 + x107 >= 1;
r290: x64 + x158 + x29 >= 1;
r291: x165 + x50 + x185 + x103 + x46 + x152 >= 1;
r292: x108 + x61 >= 1;
r293: x121 >= 1;
r294: x65 + x188 + x181 >= 1;
r295: x27 + x138 >= 1;
r296: x101 + x104 + x8 >= 1;
r297: x3 + x183 + x188 + x51 + x147 + x24 + x126 + x11 >= 1;
r298: x70 + x185 + x81 >= 1;
r299: x44 + x45 + x192 + x18 + x118 + x91 + x161 + x39 >= 1;
r300: x166 + x108 + x2 + x144 + x179 + x153 + x48 + x14 >= 1;
r301: x60 + x36 + x50 + x154 + x153 + x46 + x62 >= 1;
r302: x43 >= 1;
r303: x27 + x22 + x89 + x38 + x192 >= 1;
r304: x47 + x90 >= 1;
r305: x62 + x91 + x92 + x81 + x178 + x134 + x173 + x191 >= 1;
r306: x6 >= 1;
r307: x170 + x126 >= 1;
r308: x113 + x33 + x138 + x98 + x175 + x87 + x47 + x19 >= 1;
r309: x96 + x177 >= 1;
r310: x126 + x192 + x46 + x26 >= 1;
r311: x85 + x65 + x39 + x162 + x168 >= 1;
r312: x42 + x179 + x181 + x24 + x180 + x147 + x178 + x57 >= 1;
r313: x29 + x40 + x23 >= 1;
r314: x83 + x94 + x190 + x97 >= 1;
r315: x78 + x108 + x132 + x167 + x60 + x25 + x2 + x105 >= 1;
r316: x200 + x123 + x132 + x178 + x153 + x33 + x79 + x180 >= 1;
r317: x39 >= 1;
r318: x48 + x172 + x133 + x119 + x122 + x1 + x78 >= 1;
r319: x165 + x28 + x15 + x72 + x69 + x53 + x149 + x161 >= 1;
r320: x119 + x5 >= 1;
r321: x135 + x13 + x58 + x115 + x180 + x157 + x189 + x64 >= 1;
r322: x182 + x59 + x7 + x193 + x168 + x130 + x107 >= 1;
r323: x153 + x173 + x59 + x57 + x61 >= 1;
r324: x66 + x78 + x1 >= 1;
r325: x3 >= 1;
r326: x79 + x80 + x76 + x140 + x158 + x119 + x198 + x171 >= 1;
r327: x78 + x196 + x72 + x10 + x99 + x138 + x195 >= 1;
r328: x27 + x126 + x44 + x64 + x176 + x167 + x5 + x166 >= 1;
r329: x70 + x96 + x136 >= 1;
r330: x175 + x32 + x69 + x25 + x86 >= 1;
r331: x145 + x130 >= 1;
r332: x22 + x4 + x200 + x173 >= 1;
r333: x165 >= 1;
r334: x95 + x113 + x110 + x162 + x12 + x160 + x177 >= 1;
r335: x156 + x117 + x106 + x168 + x167 >= 1;
r336: x103 + x89 >= 1;
r337: x35 + x195 + x89 + x63 + x135 + x8 + x75 >= 1;
r338: x166 + x90 + x116 + x180 >= 1;
r339: x156 >= 1;
r340: x29 + x121 + x42 + x155 + x153 >= 1;
r341: x184 + x169 + x41 + x96 + x153 + x6 >= 1;
r342: x178 + x121 >= 1;
r343: x37 + x101 + x159 + x169 + x149 >= 1;
r344: x71 >= 1;
r345: x140 + x173 + x12 + x123 + x68 + x88 + x81 >= 1;
r346: x137 + x42 + x17 + x72 + x171 >= 1;
r347: x10 + x27 + x116 + x109 + x37 >= 1;
r348: x45 + x84 + x123 >= 1;
r349: x104 + x169 + x72 >= 1;
r350: x93 + x78 + x29 + x38 + x4 + x50 >= 1;
r351: x101 + x120 + x29 + x46 + x161 + x91 >= 1;
r352: x190 + x16 + x127 + x86 + x162 + x140 >= 1;
r353: x44 + x161 + x89 + x9 + x55 + x146 >= 1;
r354: x190 + x56 + x68 + x11 + x169 + x93 + x100 + x162 >= 1;
r355: x196 + x155 + x117 + x87 + x169 + x175 + x138 >= 1;
r356: x145 + x150 + x195 + x126 + x192 + x104 + x194 + x162 >= 1;
r357: x143 + x23 + x193 + x200 + x113 + x27 + x80 >= 1;
r358: x115 + x4 + x53 + x157 + x166 + x12 + x180 >= 1;
r359: x144 + x166 + x148 + x120 >= 1;
r360: x198 + x118 >= 1;
r361: x81 + x64 >= 1;
r362: x170 + x105 + x34 + x174 + x195 + x70 >= 1;
r363: x183 >= 1;
r364: x200 + x52 + x97 + x60 + x127 >= 1;
r365: x80 + x147 + x70 + x49 + x169 + x42 + x192 >= 1;
r366: x108 >= 1;
r367: x193 >= 1;
r368: x46 + x197 >= 1;
r369: x55 + x76 + x35 + x151 + x149 + x193 + x4 >= 1;
r370: x184 + x95 + x78 >= 1;
r371: x131 + x162 + x68 + x175 + x128 >= 1;
r372: x152 + x147 + x62 + x176 + x191 + x46 + x104 >= 1;
r373: x192 + x72 + x57 + x102 >= 1;
r374: x124 + x62 + x56 + x185 + x126 + x102 + x159 >= 1;
r375: x16 + x158 >= 1;
r376: x52 + x43 >= 1;
r377: x199 + x11 + x10 + x47 + x86 + x8 + x3 + x103 >= 1;
r378: x13 + x52 >= 1;
r379: x18 + x151 + x88 + x62 + x155 >= 1;
r380: x88 + x177 + x136 + x151 + x162 + x32 >= 1;
r381: x50 + x32 + x63 + x136 >= 1;
r382: x164 + x40 + x6 + x27 + x132 >= 1;
r383: x26 + x43 + x177 + x103 + x108 + x161 >= 1;
r384: x157 + x48 + x77 + x78 + x127 + x88 + x120 + x139 >= 1;
r385: x140 >= 1;
r386: x166 + x86 >= 1;
r387: x167 + x16 + x93 >= 1;
r388: x185 + x69 + x160 + x116 >= 1;
r389: x196 + x110 + x138 + x34 + x114 + x172 + x56 + x5 >= 1;
r390: x106 >= 1;
r391: x99 >= 1;
r392: x98 + x53 + x28 + x131 + x45 + x143 + x74 >= 1;
r393: x164 >= 1;
r394: x192 + x57 + x194 >= 1;
r395: x81 + x119 + x154 + x52 + x183 + x2 + x98 >= 1;
r396: x23 >= 1;
r397: x69 >= 1;
r398: x195 >= 1;
r399: x62 + x116 + x151 >= 1;
r400: x59 + x193 >= 1;
r401: x118 + x175 + x84 + x64 + x92 + x74 + x158 >= 1;
r402: x31 + x172 >= 1;
r403: x3 + x159 + x85 + x120 + x68 + x40 + x137 >= 1;
r404: x53 + x78 + x38 + x43 + x143 + x116 >= 1;
r405: x158 + x15 + x155 + x11 + x85 + x19 + x160 >= 1;
r406: x54 >= 1;
r407: x38 + x56 >= 1;
r408: x190 + x49 + x95 + x46 + x178 + x90 + x62 >= 1;
r409: x56 >= 1;
r410: x142 + x179 + x19 + x168 + x100 + x165 + x200 >= 1;
r411: x187 + x131 + x114 + x70 >= 1;
r412: x167 + x1 + x177 + x22 + x101 >= 1;
r413: x91 + x62 + x197 + x9 + x108 + x29 >= 1;
r414: x69 + x36 + x49 + x178 + x58 >= 1;
r415: x19 + x162 + x30 + x99 + x83 + x56 + x181 + x154 >= 1;
r416: x86 + x29 + x179 >= 1;
r417: x113 + x41 + x164 + x174 >= 1;
r418: x172 + x160 >= 1;
r419: x13 + x135 + x54 + x138 + x110 + x118 + x180 >= 1;
r420: x36 + x9 + x58 + x89 + x71 + x148 >= 1;
r421: x109 + x57 + x158 + x112 + x39 + x11 + x141 + x30 >= 1;
r422: x127 + x51 >= 1;
r423: x16 + x162 + x34 + x135 + x31 + x89 >= 1;
r424: x89 + x119 + x198 + x129 + x81 >= 1;
r425: x95 + x55 + x34 >= 1;
r426: x167 + x165 + x185 + x97 + x152 + x31 + x79 >= 1;
r427: x136 >= 1;
r428: x134 >= 1;
r429: x177 + x110 + x87 >= 1;
r430: x64 + x84 + x23 + x116 + x39 + x169 + x135 + x38 >= 1;
r431: x126 + x7 + x18 + x154 >= 1;
r432: x17 + x120 + x139 + x132 + x76 + x183 >= 1;
r433: x1 + x31 + x104 + x13 >= 1;
r434: x97 + x113 + x37 + x161 + x55 + x138 >= 1;
r435: x194 + x23 + x29 + x97 + x128 + x173 >= 1;
r436: x41 + x120 + x137 + x116 + x72 + x8 + x19 >= 1;
r437: x20 + x90 + x113 + x139 + x93 + x147 >= 1;
r438: x84 >= 1;
r439: x196 + x30 + x32 + x49 >= 1;
r440: x103 + x116 + x114 + x101 + x59 >= 1;
r441: x69 + x51 + x63 + x166 >= 1;
r442: x109 + x32 >= 1;
r443: x187 + x23 + x116 + x6 >= 1;
r444: x128 + x114 + x63 >= 1;
r445: x30 + x177 + x43 + x159 + x59 + x56 + x80 >= 1;
r446: x29 >= 1;
r447: x16 + x190 >= 1;
r448: x89 + x77 + x112 + x21 + x17 >= 1;
r449: x181 + x28 + x124 + x88 + x121 >= 1;
r450: x23 + x171 + x29 + x75 + x119 + x47 + x195 + x31 >= 1;
r451: x12 + x89 + x7 + x54 + x75 >= 1;
r452: x43 + x96 + x42 + x38 + x17 >= 1;
r453: x43 + x5 + x187 >= 1;
r454: x43 + x188 + x62 + x157 + x68 + x158 + x163 >= 1;
r455: x121 + x16 + x21 + x34 + x123 >= 1;
r456: x146 >= 1;
r457: x155 + x77 + x86 + x90 + x147 >= 1;
r458: x8 + x175 + x7 + x101 >= 1;
r459: x8 + x154 + x72 + x159 + x80 + x161 >= 1;
r460: x129 + x166 + x24 + x181 >= 1;
r461: x79 + x31 + x159 >= 1;
r462: x29 + x20 + x152 + x7 + x88 >= 1;
r463: x162 + x78 + x94 + x28 + x123 >= 1;
r464: x49 + x97 + x154 + x57 + x168 >= 1;
r465: x34 >= 1;
r466: x3 + x37 + x192 + x76 + x158 + x79 >= 1;
r467: x114 + x194 + x145 + x92 >= 1;
r468: x15 + x178 + x148 + x69 >= 1;
r469: x109 + x28 + x15 + x63 + x138 >= 1;
r470: x22 >= 1;
r471: x155 + x65 + x44 + x116 + x169 + x11 >= 1;
r472: x33 + x120 + x61 + x184 + x98 + x60 >= 1;
r473: x78 + x119 + x121 + x189 >= 1;
r474: x87 + x47 + x127 + x58 + x43 + x170 + x15 + x125 >= 1;
r475: x190 + x92 + x114 + x189 + x16 + x102 + x87 >= 1;
r476: x78 + x128 + x37 + x43 + x32 + x33 >= 1;
r477: x6 >= 1;
r478: x64 + x106 + x63 + x28 + x121 + x155 + x18 >= 1;
r479: x162 + x157 + x72 + x190 >= 1;
r480: x29 + x151 + x111 + x89 + x149 + x180 + x76 + x192 >= 1;
r481: x67 >= 1;
r482: x125 + x7 + x77 + x36 + x64 >= 1;
r483: x197 + x4 + x71 + x17 + x100 + x41 + x87 >= 1;
r484: x3 + x196 + x161 >= 1;
r485: x2 + x105 + x60 + x198 + x165 + x7 + x129 >= 1;
r486: x13 >= 1;
r487: x100 + x139 + x70 + x95 + x35 + x77 >= 1;
r488: x21 + x138 + x101 + x108 + x104 + x58 + x24 + x156 >= 1;
r489: x84 + x89 >= 1;
r490: x132 >= 1;
r491: x110 + x180 + x67 >= 1;
r492: x173 >= 1;
r493: x178 + x11 + x198 >= 1;
r494: x109 + x91 + x180 + x29 + x62 + x117 + x192 + x13 >= 1;
r495: x194 >= 1;
r496: x81 + x7 + x146 >= 1;
r497: x151 + x59 + x119 >= 1;
r498: x160 + x81 >= 1;
r499: x187 + x196 >= 1;
r500: x108 + x37 + x15 + x68 + x64 + x20 >= 1;
r501: x105 + x92 + x96 + x126 >= 1;
r502: x172 + x58 + x71 + x47 + x82 + x13 + x151 >= 1;
r503: x200 + x32 + x58 + x17 + x53 >= 1;
r504: x10 + x179 + x53 + x149 + x20 >= 1;
r505: x95 + x59 >= 1;
r506: x47 + x72 + x177 >= 1;
r507: x119 + x30 + x4 + x184 + x114 >= 1;
r508: x166 + x132 + x144 + x99 >= 1;
r509: x92 >= 1;
r510: x43 + x84 + x188 + x62 + x5 + x2 >= 1;
r511: x82 + x76 + x154 + x83 >= 1;
r512: x181 + x178 >= 1;
r513: x77 + x30 + x171 + x31 + x158 + x176 + x185 >= 1;
r514: x176 + x41 >= 1;
r515: x131 + x183 + x119 >= 1;
r516: x160 >= 1;
r517: x31 + x11 + x18 + x94 >= 1;
r518: x55 + x192 + x82 + x53 + x5 >= 1;
r519: x24 + x75 + x162 + x125 + x43 >= 1;
r520: x90 + x173 + x12 + x58 >= 1;
r521: x184 + x48 + x165 + x33 + x166 + x55 + x105 + x83 >= 1;
r522: x13 + x179 + x176 + x62 >= 1;
r523: x123 + x137 + x198 + x34 + x169 + x82 >= 1;
r524: x65 + x52 + x48 + x105 + x177 + x15 + x36 + x144 >= 1;
r525: x50 + x20 + x175 >= 1;
r526: x187 + x195 + x98 + x130 + x97 + x164 >= 1;
r527: x142 + x94 >= 1;
r528: x71 + x6 + x74 + x189 + x176 >= 1;
r529: x97 + x190 + x122 + x93 + x154 >= 1;
r530: x140 + x89 + x51 + x146 + x14 + x40 >= 1;
r531: x145 + x46 >= 1;
r532: x189 + x178 + x77 + x17 + x31 + x99 + x41 >= 1;
r533: x11 + x113 + x69 + x190 + x104 + x23 + x20 >= 1;
r534: x97 + x106 + x69 + x66 + x154 >= 1;
r535: x85 + x87 + x78 + x173 + x119 + x116 >= 1;
r536: x164 + x159 + x63 + x167 + x54 + x199 + x78 + x61 >= 1;
r537: x114 + x132 + x83 >= 1;
r538: x22 + x82 + x17 >= 1;
r539: x24 + x83 + x187 >= 1;
r540: x129 + x183 >= 1;
r541: x28 + x92 + x50 + x154 >= 1;
r542: x173 + x179 + x17 + x134 + x139 + x31 + x15 + x108 >= 1;
r543: x141 + x91 + x117 + x166 + x29 + x155 + x5 >= 1;
r544: x79 + x160 + x48 + x150 + x32 + x100 >= 1;
r545: x191 + x36 + x144 + x119 >= 1;
r546: x75 + x168 + x174 + x169 >= 1;
r547: x11 + x75 + x44 + x56 + x190 >= 1;
r548: x18 + x191 + x128 + x57 + x144 >= 1;
r549: x53 + x194 + x101 + x170 >= 1;
r550: x142 + x113 + x32 + x158 >= 1;
r551: x121 + x157 + x87 + x52 >= 1;
r552: x46 + x93 + x98 + x158 + x37 + x108 + x28 + x55 >= 1;
r553: x6 + x64 + x27 + x87 >= 1;
r554: x97 + x63 + x132 + x13 + x48 + x18 + x17 + x160 >= 1;
r555: x98 + x59 + x84 >= 1;
r556: x155 + x52 + x118 + x110 + x47 + x102 + x197 + x75 >= 1;
r557: x172 + x150 + x60 >= 1;
r558: x40 + x13 + x6 + x164 + x60 + x34 + x163 >= 1;
r559: x56 + x138 + x6 + x156 >= 1;
r560: x97 >= 1;
r561: x45 + x15 + x192 + x21 + x149 + x133 + x108 + x110 >= 1;
r562: x1 + x178 + x73 + x127 >= 1;
r563: x62 + x80 + x51 + x123 + x115 >= 1;
r564: x99 + x12 + x97 + x13 + x21 + x169 + x182 >= 1;
r565: x86 + x45 + x19 + x132 >= 1;
r566: x80 + x190 + x168 + x132 >= 1;
r567: x85 + x22 + x75 + x103 + x192 >= 1;
r568: x150 + x196 + x77 + x35 + x8 >= 1;
r569: x56 + x31 >= 1;
r570: x3 + x122 + x74 + x167 + x130 + x125 + x124 + x178 >= 1;
r571: x57 + x51 + x80 + x82 >= 1;
r572: x49 + x184 + x194 + x74 + x93 + x166 + x146 + x159 >= 1;
r573: x20 + x151 + x98 >= 1;
r574: x102 + x129 + x128 + x1 + x9 + x86 + x179 + x160 >= 1;
r575: x174 + x111 >= 1;
r576: x92 + x184 + x121 + x88 + x165 >= 1;
r577: x96 + x17 + x112 + x82 >= 1;
r578: x52 + x50 + x92 + x73 + x167 + x116 + x141 >= 1;
r579: x195 + x87 + x89 >= 1;
r580: x19 + x79 + x69 + x121 + x147 + x127 + x71 + x179 >= 1;
r581: x112 + x181 + x154 >= 1;
r582: x195 + x18 + x22 + x116 + x92 + x109 + x132 >= 1;
r583: x147 + x96 + x125 + x199 >= 1;
r584: x86 + x99 + x63 + x147 + x9 + x7 + x194 + x103 >= 1;
r585: x66 + x10 + x38 + x139 + x112 + x106 >= 1;
r586: x172 + x38 + x147 + x130 + x86 >= 1;
r587: x130 + x85 + x108 >= 1;
r588: x97 >= 1;
r589: x114 + x148 + x124 + x171 + x74 + x28 + x134 + x184 >= 1;
r590: x117 + x195 + x140 + x6 >= 1;
r591: x166 + x177 + x100 + x65 + x69 + x86 >= 1;
r592: x76 >= 1;
r593: x80 + x189 + x179 + x76 + x134 + x171 + x45 >= 1;
r594: x124 >= 1;
r595: x93 + x5 + x130 + x35 + x18 + x32 + x81 + x41 >= 1;
r596: x146 + x114 + x22 + x151 + x96 + x100 + x17 + x176 >= 1;
r597: x100 + x5 + x149 + x190 + x9 >= 1;
r598: x114 + x142 + x195 + x72 + x139 + x14 + x200 >= 1;
r599: x190 + x139 + x127 >= 1;
r600: x121 + x104 + x28 + x20 + x59 + x109 + x42 >= 1;
r601: x114 + x52 >= 1;
r602: x26 + x131 + x151 + x100 + x185 >= 1;
r603: x98 + x123 + x97 >= 1;
r604: x6 + x174 + x41 + x96 + x167 + x60 >= 1;
r605: x94 + x35 + x4 + x34 + x164 + x53 + x152 >= 1;
r606: x18 + x55 + x101 + x1 + x200 + x4 >= 1;
r607: x120 + x158 + x102 + x162 + x40 + x169 >= 1;
r608: x192 + x29 + x142 >= 1;
r609: x131 + x139 + x138 + x196 >= 1;
r610: x156 + x30 + x85 + x86 + x69 >= 1;
r611: x159 + x114 + x105 + x153 + x127 + x64 + x63 + x113 >= 1;
r612: x73 + x141 + x193 + x101 + x181 + x17 + x149 >= 1;
r613: x68 >= 1;
r614: x20 + x48 + x12 + x168 + x6 >= 1;
r615: x57 + x175 + x91 >= 1;
r616: x78 + x149 + x173 + x182 + x105 >= 1;
r617: x173 + x57 + x114 + x47 + x70 + x37 + x110 >= 1;
r618: x150 + x62 >= 1;
r619: x170 + x130 + x188 + x155 + x35 + x189 >= 1;
r620: x109 + x1 + x70 >= 1;
r621: x11 + x130 + x126 + x155 + x196 + x162 >= 1;
r622: x6 + x26 + x52 >= 1;
r623: x111 + x99 + x43 + x18 + x123 + x78 >= 1;
r624: x118 + x152 + x139 + x193 + x99 >= 1;
r625: x153 >= 1;
r626: x66 + x16 + x166 + x181 + x86 + x132 + x111 >= 1;
r627: x196 + x170 + x187 + x106 + x26 + x73 >= 1;
r628: x21 + x29 + x64 + x162 + x106 + x94 >= 1;
r629: x167 + x169 + x54 + x197 >= 1;
r630: x183 >= 1;
r631: x166 + x152 + x165 + x48 + x174 + x19 >= 1;
r632: x124 + x150 >= 1;
r633: x91 + x31 + x33 + x149 + x169 >= 1;
r634: x198 + x8 + x7 + x90 + x82 + x33 + x187 + x128 >= 1;
r635: x97 + x164 >= 1;
r636: x92 + x120 >= 1;
r637: x29 + x152 + x83 + x125 >= 1;
r638: x124 + x133 + x196 + x152 + x73 + x67 + x7 + x135 >= 1;
r639: x195 + x192 + x92 + x28 + x176 + x54 + x99 >= 1;
r640: x138 + x141 >= 1;
r641: x5 + x164 + x8 >= 1;
r642: x168 + x121 >= 1;
r643: x96 >= 1;
r644: x109 + x63 + x96 + x95 + x94 + x46 + x67 >= 1;
r645: x78 + x106 + x46 + x110 + x29 >= 1;
r646: x125 + x99 + x178 + x119 + x146 + x113 + x131 >= 1;
r647: x70 + x141 + x89 + x22 + x175 >= 1;
r648: x145 + x79 >= 1;
r649: x141 + x171 + x168 + x26 + x182 + x55 + x149 + x25 >= 1;
r650: x67 >= 1;
r651: x27 + x173 + x52 + x94 >= 1;
r652: x144 + x114 + x159 + x124 + x158 >= 1;
r653: x44 + x146 + x46 + x186 + x169 + x164 >= 1;
r654: x122 + x153 + x22 >= 1;
r655: x96 + x143 + x183 >= 1;
r656: x55 + x20 + x118 >= 1;
r657: x95 + x148 + x12 >= 1;
r658: x100 >= 1;
r659: x135 + x48 + x36 >= 1;
r660: x116 + x11 + x85 + x153 + x8 + x154 + x16 >= 1;
r661: x61 + x161 + x81 + x39 + x99 + x130 + x127 + x126 >= 1;
r662: x192 + x171 >= 1;
r663: x182 >= 1;
r664: x144 + x15 + x61 + x70 + x91 + x125 + x137 >= 1;
r665: x2 + x41 + x39 + x74 + x145 + x129 >= 1;
r666: x63 + x180 + x143 + x148 + x92 + x105 >= 1;
r667: x178 + x108 >= 1;
r668: x12 + x127 + x22 + x17 + x7 + x194 + x55 + x115 >= 1;
r669: x167 + x130 + x199 + x100 + x188 >= 1;
r670: x67 + x140 + x144 >= 1;
r671: x33 + x105 + x96 + x11 + x97 + x159 >= 1;
r672: x166 >= 1;
r673: x148 + x177 + x187 + x50 + x65 + x68 >= 1;
r674: x134 + x84 + x101 + x40 + x91 + x83 >= 1;
r675: x132 + x63 + x190 + x79 + x98 + x30 + x188 + x167 >= 1;
r676: x170 + x71 + x135 >= 1;
r677: x99 + x145 + x185 + x111 >= 1;
r678: x38 + x42 + x85 + x170 + x138 >= 1;
r679: x178 + x159 + x82 + x198 + x29 + x132 + x164 + x59 >= 1;
r680: x78 + x48 + x119 + x136 + x37 + x116 + x58 + x33 >= 1;
r681: x89 + x190 >= 1;
r682: x167 + x148 + x27 + x139 + x39 + x158 + x154 + x156 >= 1;
r683: x123 + x114 + x76 + x50 + x66 >= 1;
r684: x159 + x198 + x135 + x73 + x4 >= 1;
r685: x193 + x136 + x173 + x41 + x187 >= 1;
r686: x38 + x58 + x179 >= 1;
r687: x62 + x135 + x181 + x112 + x49 + x108 + x81 + x6 >= 1;
r688: x41 + x51 >= 1;
r689: x183 >= 1;
r690: x194 + x138 + x175 + x86 + x105 + x20 >= 1;
r691: x11 + x22 + x40 + x23 + x102 + x12 + x99 >= 1;
r692: x74 + x111 + x70 + x119 >= 1;
r693: x56 + x187 + x70 + x149 + x88 >= 1;
r694: x191 + x8 + x176 + x89 + x164 + x141 + x5 >= 1;
r695: x69 + x37 + x153 + x66 + x26 + x72 + x192 + x190 >= 1;
r696: x116 + x95 >= 1;
r697: x145 + x113 + x144 + x68 + x12 + x134 + x32 >= 1;
r698: x68 >= 1;
r699: x128 + x56 + x92 + x25 + x181 >= 1;
r700: x23 + x150 + x77 + x108 + x95 >= 1;
r701: x196 >= 1;
r702: x172 + x39 + x100 + x139 + x148 + x61 + x13 >= 1;
r703: x106 >= 1;
r704: x66 >= 1;
r705: x159 + x58 + x83 + x96 + x137 >= 1;
r706: x179 + x65 + x148 >= 1;
r707: x173 + x197 + x143 >= 1;
r708: x98 + x59 + x55 + x180 + x62 + x94 + x171 >= 1;
r709: x76 + x18 + x190 + x5 >= 1;
r710: x200 + x180 + x195 + x178 + x44 + x117 >= 1;
r711: x194 + x132 + x187 + x68 >= 1;
r712: x29 + x161 + x125 + x95 + x46 + x13 + x121 >= 1;
r713: x165 + x32 >= 1;
r714: x74 + x99 + x145 + x167 + x129 >= 1;
r715: x143 >= 1;
r716: x108 + x67 + x95 + x188 + x184 + x142 + x126 + x175 >= 1;
r717: x97 + x180 + x67 + x159 + x72 + x23 + x31 + x200 >= 1;
r718: x93 + x200 + x35 + x94 + x131 + x102 + x90 >= 1;
r719: x139 >= 1;
r720: x170 + x36 + x97 + x177 >= 1;
r721: x79 + x28 + x11 + x189 >= 1;
r722: x55 >= 1;
r723: x68 + x108 + x199 + x17 + x43 + x137 + x62 + x42 >= 1;
r724: x197 + x143 + x120 + x66 + x52 >= 1;
r725: x199 + x31 + x37 + x84 + x127 + x188 + x86 + x39 >= 1;
r726: x106 + x81 + x37 + x145 >= 1;
r727: x40 + x11 + x69 + x72 + x122 + x126 + x101 >= 1;
r728: x199 + x51 >= 1;
r729: x57 + x9 >= 1;
r730: x177 + x110 + x172 + x159 + x184 + x65 + x182 + x81 >= 1;
r731: x159 + x115 + x141 + x41 + x133 + x100 + x34 >= 1;
r732: x43 + x128 + x108 + x150 + x149 >= 1;
r733: x118 + x126 + x137 + x10 + x94 + x120 >= 1;
r734: x63 + x143 + x76 + x195 >= 1;
r735: x90 + x3 >= 1;
r736: x159 + x78 >= 1;
r737: x96 >= 1;
r738: x65 + x198 + x35 + x176 >= 1;
r739: x161 + x152 + x121 + x139 + x167 + x39 + x109 + x149 >= 1;
r740: x150 + x73 + x23 >= 1;
r741: x187 + x85 >= 1;
r742: x95 + x136 + x34 + x176 + x145 + x20 + x63 >= 1;
r743: x165 + x23 + x106 + x69 >= 1;
r744: x163 + x142 + x25 + x191 >= 1;
r745: x37 + x48 + x120 + x1 + x73 + x189 >= 1;
r746: x18 + x76 + x118 + x88 + x33 + x49 + x53 >= 1;
r747: x81 + x105 + x20 + x142 + x12 >= 1;
r748: x30 + x192 + x27 + x132 + x151 >= 1;
r749: x199 + x10 >= 1;
r750: x58 + x74 + x139 + x115 + x92 + x13 >= 1;
r751: x141 + x74 + x7 + x26 + x41 + x73 + x170 + x116 >= 1;
r752: x111 + x189 >= 1;
r753: x121 + x124 + x10 + x5 + x156 + x48 + x151 >= 1;
r754: x21 + x2 >= 1;
r755: x145 + x189 >= 1;
r756: x48 + x1 >= 1;
r757: x126 + x21 + x45 + x154 >= 1;
r758: x1 + x104 + x32 + x174 + x88 + x145 + x162 >= 1;
r759: x168 + x136 >= 1;
r760: x150 + x97 + x126 >= 1;
r761: x167 + x155 >= 1;
r762: x146 >= 1;
r763: x136 + x177 + x70 + x99 >= 1;
r764: x180 + x181 >= 1;
r765: x135 + x129 + x114 + x100 + x146 + x154 >= 1;
r766: x94 + x21 + x40 + x11 + x120 >= 1;
r767: x134 + x55 + x56 >= 1;
r768: x157 >= 1;
r769: x112 + x128 >= 1;
r770: x106 + x171 >= 1;
r771: x146 + x118 + x189 + x152 + x96 + x5 >= 1;
r772: x122 + x158 + x21 + x43 + x130 >= 1;
r773: x151 + x114 + x99 + x13 + x6 + x145 >= 1;
r774: x185 + x85 + x178 + x191 + x151 + x90 + x53 >= 1;
r775: x9 + x177 + x175 + x65 + x183 + x140 + x136 + x6 >= 1;
r776: x44 >= 1;
r777: x5 + x90 + x29 + x19 + x191 + x174 >= 1;
r778: x15 >= 1;
r779: x105 + x85 + x135 + x199 + x6 >= 1;
r780: x42 + x169 + x44 + x40 + x67 >= 1;
r781: x1 + x31 + x168 + x8 + x93 + x38 >= 1;
r782: x147 + x133 + x26 + x50 + x163 + x168 + x196 + x40 >= 1;
r783: x193 + x91 + x174 + x118 + x131 + x32 + x71 + x188 >= 1;
r784: x33 + x19 + x182 + x84 + x37 >= 1;
r785: x90 + x182 + x30 + x161 + x199 + x184 + x86 + x155 >= 1;
r786: x162 + x52 + x190 + x114 + x135 >= 1;
r787: x178 + x86 >= 1;
r788: x17 + x169 >= 1;
r789: x199 + x122 + x147 + x7 + x124 + x54 + x133 + x139 >= 1;
r790: x71 + x134 + x23 + x116 + x121 + x165 + x63 + x160 >= 1;
r791: x68 + x92 + x169 >= 1;
r792: x132 + x71 + x180 + x149 + x1 + x62 + x199 >= 1;
r793: x165 + x77 >= 1;
r794: x148 + x138 + x186 >= 1;
r795: x164 + x146 + x171 + x40 + x162 + x6 + x64 + x158 >= 1;
r796: x125 + x143 + x13 + x158 + x135 + x63 >= 1;
r797: x14 + x163 + x123 + x52 >= 1;
r798: x75 + x189 + x100 + x86 + x125 + x149 + x178 + x52 >= 1;
r799: x75 + x67 + x58 + x87 + x12 + x55 + x47 + x50 >= 1;
r800: x166 + x45 + x79 + x190 >= 1;

bin x1, x2, x3, x4, x5, x6, x7, x8, x9, x10, x11, x12, x13, x14, x15, x16, x17, x18, x19, x20, x21, x22, x23, x24, x25, x26, x27, x28, x29, x30, x31, x32, x33, x34, x35, x36, x37, x38, x39, x40, x41, x42, x43, x44, x45, x46, x47, x48, x49, x50, x51, x52, x53, x54, x55, x56, x57, x58, x59, x60, x61, x62, x63, x64, x65, x66, x67, x68, x69, x70, x71, x72, x73, x74, x75, x76, x77, x78, x79, x80, x81, x82, x83, x84, x85, x86, x87, x88, x89, x90, x91, x92, x93, x94, x95, x96, x97, x98, x99, x100, x101, x102, x103, x104, x105, x106, x107, x108, x109, x110, x111, x112, x113, x114, x115, x116, x117, x118, x119, x120, x121, x122, x123, x124, x125, x126, x127, x128, x129, x130, x131, x132, x133, x134, x135, x136, x137, x138, x139, x140, x141, x142, x143, x144, x145, x146, x147, x148, x149, x150, x151, x152, x153, x154, x155, x156, x157, x158, x159, x160, x161, x162, x163, x164, x165, x166, x167, x168, x169, x170, x171, x172, x173, x174, x175, x176, x177, x178, x179, x180, x181, x182, x183, x184, x185, x186, x187, x188, x189, x190, x191, x192, x193, x194, x195, x196, x197, x198, x199, x200;
